Maximize

200 x_0 + 100 x_1 + 800 x_2 + 300 x_3 + 500 x_4 + 600 x_5 + 700 x_6 + 400 x_7 + 900 x_8 + 750 x_9 + 650 x_10 + 550 x_11 + 850 x_12 + 950 x_13 + 450 x_14 + 150 x_15 + 250 x_16 + 350 x_17 + 999 x_18 + 899 x_19


Subject To

a0: x_0 <= 100
a1: x_1 <= 200
a2: x_2 <= 300
a3: x_3 <= 400
a4: x_4 <= 500
a5: x_5 <= 400
a6: x_6 <= 300
a7: x_7 <= 200
a8: x_8 <= 100
a9: x_9 <= 100
a10: x_10 <= 200
a11: x_11 <= 300
a12: x_12 <= 400
a13: x_13 <= 500
a14: x_14 <= 400
a15: x_15 <= 300
a16: x_16 <= 200
a17: x_17 <= 100
a18: x_18 <= 500
a19: x_19 <= 400
b0: 35 x_0 + 32 x_0 + 21 x_0 + 0 x_0 + 0 x_0 + 0 x_0 + 0 x_0 + 0 x_0 + 0 x_0 + 0 x_0 + 0 x_1 + 0 x_1 + 0 x_1 + 18 x_1 + 5 x_1 + 0 x_1 + 0 x_1 + 0 x_1 + 0 x_1 + 0 x_1 + 0 x_2 + 0 x_2 + 0 x_2 + 0 x_2 + 0 x_2 + 20 x_2 + 6 x_2 + 0 x_2 + 0 x_2 + 0 x_2 + 0 x_3 + 0 x_3 + 0 x_3 + 0 x_3 + 0 x_3 + 0 x_3 + 0 x_3 + 15 x_3 + 8 x_3 + 0 x_3 + 49 x_4 + 16 x_4 + 7 x_4 + 36 x_4 + 5 x_4 + 0 x_4 + 0 x_4 + 0 x_4 + 0 x_4 + 0 x_4 + 0 x_5 + 8 x_5 + 0 x_5 + 0 x_5 + 0 x_5 + 12 x_5 + 3 x_5 + 3 x_5 + 8 x_5 + 0 x_5 + 35 x_6 + 8 x_6 + 0 x_6 + 0 x_6 + 10 x_6 + 2 x_6 + 0 x_6 + 0 x_6 + 0 x_6 + 0 x_6 + 0 x_7 + 0 x_7 + 0 x_7 + 36 x_7 + 0 x_7 + 0 x_7 + 4 x_7 + 6 x_7 + 4 x_7 + 0 x_7 + 140 x_8 + 0 x_8 + 0 x_8 + 0 x_8 + 0 x_8 + 20 x_8 + 5 x_8 + 0 x_8 + 0 x_8 + 0 x_8 + 35 x_9 + 32 x_9 + 21 x_9 + 0 x_9 + 0 x_9 + 0 x_9 + 0 x_9 + 0 x_9 + 0 x_9 + 0 x_9 + 0 x_10 + 0 x_10 + 0 x_10 + 18 x_10 + 5 x_10 + 0 x_10 + 0 x_10 + 0 x_10 + 0 x_10 + 0 x_10 + 0 x_11 + 0 x_11 + 0 x_11 + 0 x_11 + 0 x_11 + 20 x_11 + 6 x_11 + 0 x_11 + 0 x_11 + 0 x_11 + 0 x_12 + 0 x_12 + 0 x_12 + 0 x_12 + 0 x_12 + 0 x_12 + 0 x_12 + 15 x_12 + 8 x_12 + 0 x_12 + 49 x_13 + 16 x_13 + 7 x_13 + 36 x_13 + 5 x_13 + 0 x_13 + 0 x_13 + 0 x_13 + 0 x_13 + 0 x_13 + 0 x_14 + 8 x_14 + 0 x_14 + 0 x_14 + 0 x_14 + 12 x_14 + 3 x_14 + 3 x_14 + 8 x_14 + 0 x_14 + 35 x_15 + 8 x_15 + 0 x_15 + 0 x_15 + 10 x_15 + 2 x_15 + 0 x_15 + 0 x_15 + 0 x_15 + 0 x_15 + 0 x_16 + 0 x_16 + 0 x_16 + 36 x_16 + 0 x_16 + 0 x_16 + 4 x_16 + 6 x_16 + 4 x_16 + 0 x_16 + 140 x_17 + 0 x_17 + 0 x_17 + 0 x_17 + 0 x_17 + 20 x_17 + 5 x_17 + 0 x_17 + 0 x_17 + 0 x_17 + 49 x_18 + 16 x_18 + 7 x_18 + 36 x_18 + 5 x_18 + 0 x_18 + 0 x_18 + 0 x_18 + 0 x_18 + 0 x_18 + 0 x_19 + 8 x_19 + 0 x_19 + 0 x_19 + 0 x_19 + 12 x_19 + 3 x_19 + 3 x_19 + 8 x_19 + 0 x_19 <= 1000
c0: 45 x_0 + 24 x_0 + 15 x_0 + 0 x_0 + 0 x_0 + 0 x_0 + 0 x_0 + 0 x_0 + 0 x_0 + 0 x_0 + 0 x_1 + 0 x_1 + 0 x_1 + 8 x_1 + 3 x_1 + 0 x_1 + 0 x_1 + 0 x_1 + 0 x_1 + 0 x_1 + 0 x_2 + 0 x_2 + 0 x_2 + 0 x_2 + 0 x_2 + 10 x_2 + 12 x_2 + 0 x_2 + 0 x_2 + 0 x_2 + 0 x_3 + 0 x_3 + 0 x_3 + 0 x_3 + 0 x_3 + 0 x_3 + 0 x_3 + 20 x_3 + 10 x_3 + 0 x_3 + 63 x_4 + 12 x_4 + 5 x_4 + 16 x_4 + 3 x_4 + 0 x_4 + 0 x_4 + 0 x_4 + 0 x_4 + 0 x_4 + 0 x_5 + 6 x_5 + 0 x_5 + 0 x_5 + 0 x_5 + 6 x_5 + 6 x_5 + 4 x_5 + 10 x_5 + 0 x_5 + 45 x_6 + 6 x_6 + 0 x_6 + 0 x_6 + 6 x_6 + 1 x_6 + 0 x_6 + 0 x_6 + 0 x_6 + 0 x_6 + 0 x_7 + 0 x_7 + 0 x_7 + 16 x_7 + 0 x_7 + 0 x_7 + 8 x_7 + 8 x_7 + 5 x_7 + 0 x_7 + 180 x_8 + 0 x_8 + 0 x_8 + 0 x_8 + 0 x_8 + 10 x_8 + 10 x_8 + 0 x_8 + 0 x_8 + 0 x_8 + 45 x_9 + 24 x_9 + 15 x_9 + 0 x_9 + 0 x_9 + 0 x_9 + 0 x_9 + 0 x_9 + 0 x_9 + 0 x_9 + 0 x_10 + 0 x_10 + 0 x_10 + 8 x_10 + 3 x_10 + 0 x_10 + 0 x_10 + 0 x_10 + 0 x_10 + 0 x_10 + 0 x_11 + 0 x_11 + 0 x_11 + 0 x_11 + 0 x_11 + 10 x_11 + 12 x_11 + 0 x_11 + 0 x_11 + 0 x_11 + 0 x_12 + 0 x_12 + 0 x_12 + 0 x_12 + 0 x_12 + 0 x_12 + 0 x_12 + 20 x_12 + 10 x_12 + 0 x_12 + 63 x_13 + 12 x_13 + 5 x_13 + 16 x_13 + 3 x_13 + 0 x_13 + 0 x_13 + 0 x_13 + 0 x_13 + 0 x_13 + 0 x_14 + 6 x_14 + 0 x_14 + 0 x_14 + 0 x_14 + 6 x_14 + 6 x_14 + 4 x_14 + 10 x_14 + 0 x_14 + 45 x_15 + 6 x_15 + 0 x_15 + 0 x_15 + 6 x_15 + 1 x_15 + 0 x_15 + 0 x_15 + 0 x_15 + 0 x_15 + 0 x_16 + 0 x_16 + 0 x_16 + 16 x_16 + 0 x_16 + 0 x_16 + 8 x_16 + 8 x_16 + 5 x_16 + 0 x_16 + 180 x_17 + 0 x_17 + 0 x_17 + 0 x_17 + 0 x_17 + 10 x_17 + 10 x_17 + 0 x_17 + 0 x_17 + 0 x_17 + 63 x_18 + 12 x_18 + 5 x_18 + 16 x_18 + 3 x_18 + 0 x_18 + 0 x_18 + 0 x_18 + 0 x_18 + 0 x_18 + 0 x_19 + 6 x_19 + 0 x_19 + 0 x_19 + 0 x_19 + 6 x_19 + 6 x_19 + 4 x_19 + 10 x_19 + 0 x_19 <= 1000





General

 x_0 x_1 x_2 x_3 x_4 x_5 x_6 x_7 x_8 x_9 x_10 x_11 x_12 x_13 x_14 x_15 x_16 x_17 x_18 x_19



End
